\Problem name: 

Minimize
OBJROW: 41 x_1_1 + 27 x_1_2 + 28 x_1_3 + 24 x_1_4 + 40 x_2_1 + 29 x_2_2 + 100000 x_2_3 + 23 x_2_4 + 37 x_3_1 + 30 x_3_2
 + 27 x_3_3 + 21 x_3_4
Subject To
constr(0):  x_1_1 + x_1_2 + x_1_3 + x_1_4 <= 75
constr(1):  x_2_1 + x_2_2 + x_2_3 + x_2_4 <= 75
constr(2):  x_3_1 + x_3_2 + x_3_3 + x_3_4 <= 45
constr(3):  x_1_1 + x_2_1 + x_3_1 = 20
constr(4):  x_1_2 + x_2_2 + x_3_2 = 30
constr(5):  x_1_3 + x_2_3 + x_3_3 = 30
constr(6):  x_1_4 + x_2_4 + x_3_4 = 40
Bounds
Integers
x_1_1 x_1_2 x_1_3 x_1_4 x_2_1 x_2_2 x_2_3 x_2_4 x_3_1 x_3_2 
x_3_3 x_3_4 
End
